
  22   10
  10   10   10   10   10   10   10   10   10   10

   0   0   0   0   0   0   0   0   0   0   0   1 2 
   8  10  10  10  10  10  10  10  10  10  10   2 7 3 
   3  10  10  10  10  10  10  10  10  10  10   1 4 
  10  10  10  10  10  10  10  10  10  10  10   2 13 5 
  10  10  10  10  10  10  10  10  10  10  10   3 21 20 6 
   5  10  10  10  10  10  10  10  10  10  10   3 18 12 8 
   8  10  10  10  10  10  10  10  10  10  10   5 20 18 15 12 9 
   2  10  10  10  10  10  10  10  10  10  10   3 19 15 9 
   2  10  10  10  10  10  10  10  10  10  10   3 17 16 10 
   5  10  10  10  10  10  10  10  10  10  10   1 11 
   2  10  10  10  10  10  10  10  10  10  10   1 14 
   8  10  10  10  10  10  10  10  10  10  10   1 14 
   4  10  10  10  10  10  10  10  10  10  10   1 15 
   3  10  10  10  10  10  10  10  10  10  10   1 22
   8  10  10  10  10  10  10  10  10  10  10   1 22
   3  10  10  10  10  10  10  10  10  10  10   1 22
  10  10  10  10  10  10  10  10  10  10  10   1 22
   6  10  10  10  10  10  10  10  10  10  10   1 22
   1  10  10  10  10  10  10  10  10  10  10   1 22
   9  10  10  10  10  10  10  10  10  10  10   1 22
   9  10  10  10  10  10  10  10  10  10  10   1 22
   0   0   0   0   0   0   0   0   0   0   0   0 
